NAME : tour.tour
TIME : 2020-10-25 18:31:36
LENGTH : 956.546158121139
COMMENT : hello world
DIMENSION : 29
TOUR_SECTION
8
24
7
6
5
4
3
2
17
16
18
25
23
26
20
19
15
27
28
1
0
14
13
12
11
10
21
22
9
EOF
